
  32    4
  10   10   10   10

   0   0   0   0   0   8 2 3 4 5 7 8 10 11 
   5   1   1   0   1   6 22 17 14 13 12 9 
   7   0   3   1   5   3 13 9 6 
   6   2   0   6   3   5 21 16 15 13 12 
   2   8   4   0   4   4 22 14 12 9 
   7   4   0   5   2   5 22 21 20 16 12 
   5   7   0   4   3   5 23 22 21 20 12 
   3   3   4   3   0   4 20 17 16 13 
   9   4   0   4   3   6 25 24 23 20 19 18 
   9   3   2   1   0   4 24 19 18 16 
   2   4   4   1   0   5 27 24 23 22 18 
   2   4   6   3   0   4 25 24 19 18 
   4   0   4   1   4   5 31 28 25 24 19 
  10   3   3   0   4   5 27 25 23 21 20 
   1   4   0   6   3   3 27 20 18 
   6   3   0   4   5   5 31 30 28 27 23 
   4   2   0   3   6   5 31 30 28 27 26 
   4   5   5   4   0   4 31 30 28 26 
   2   0   3   3   3   3 30 27 26 
   3   6   0   3   8   2 30 26 
   2   4   7   8   0   2 31 26 
   8   4   5   0   3   2 30 26 
   3   2   0   6   7   1 26 
   3   0   2   4   3   1 26 
   6   2   4   5   0   1 26 
   5   0   4   2   5   1 29 
   5   8   0   4   7   1 29 
   3   0   3   5   3   1 29 
   4   0   6   6   3   1 32
   6   5   0   4   4   1 32
   8   0   6   8   3   1 32
   0   0   0   0   0   0 
